####################################################################### 
# 
# This file contains crystal structure data downloaded from the 
# Cambridge Structural Database (CSD) hosted by the Cambridge 
# Crystallographic Data Centre (CCDC) in cooperation with FIZ Karlsruhe.
# 
# Please note that these data are only for research purposes or private use.
# For detailed information please see under Terms & Conditions.
# Full information about CCDC and FIZ Karlsruhe data access policies and 
# citation guidelines are available at http://www.ccdc.cam.ac.uk/access/V1
# 
# Audit and citation data items may have been added by FIZ Karlsruhe. 
# Please retain this information to preserve the provenance of 
# this file and to allow appropriate attribution of the data. 
# 
#######################################################################

data_16428-ICSD
_database_code_depnum_ccdc_archive 'CCDC 1597008'
loop_
_citation_id
_citation_doi
_citation_year
1 10.1107/S0567740880009879 1980
_audit_update_record             
;
2018-02-26 deposited with the CCDC.	2024-10-03 downloaded from the CCDC.
;
_database_code_ICSD              16428
_chemical_name_systematic        'Carbon Dioxide'
_chemical_formula_sum            'C1 O2'
_chemical_formula_moiety         'C1 O2'
_cell_length_a                   5.624
_cell_length_b                   5.624
_cell_length_c                   5.624
_cell_angle_alpha                90
_cell_angle_beta                 90
_cell_angle_gamma                90
_cell_volume                     177.88
_cell_formula_units_Z            4
_symmetry_space_group_name_H-M   'P a -3'
_symmetry_Int_Tables_number      205
_symmetry_cell_setting           cubic
_refine_ls_R_factor_all          0.041
loop_
_symmetry_equiv_pos_site_id
_symmetry_equiv_pos_as_xyz
1 '-z+1/2, x+1/2, y'
2 'z+1/2, x, -y+1/2'
3 'z, -x+1/2, y+1/2'
4 '-z, -x, -y'
5 'y, -z+1/2, x+1/2'
6 '-y+1/2, z+1/2, x'
7 'y+1/2, z, -x+1/2'
8 '-y, -z, -x'
9 'x+1/2, y, -z+1/2'
10 'x, -y+1/2, z+1/2'
11 '-x+1/2, y+1/2, z'
12 '-x, -y, -z'
13 'z+1/2, -x+1/2, -y'
14 '-z+1/2, -x, y+1/2'
15 '-z, x+1/2, -y+1/2'
16 'z, x, y'
17 '-y, z+1/2, -x+1/2'
18 'y+1/2, -z+1/2, -x'
19 '-y+1/2, -z, x+1/2'
20 'y, z, x'
21 '-x+1/2, -y, z+1/2'
22 '-x, y+1/2, -z+1/2'
23 'x+1/2, -y+1/2, -z'
24 'x, y, z'
loop_
_atom_site_label
_atom_site_type_symbol
_atom_site_fract_x
_atom_site_fract_y
_atom_site_fract_z
C C 0 0 0
O O 0.1185 0.1185 0.1185

#End of data_16428-ICSD


